
List of user-set options:

                                    Name   Value                used
                             alpha_for_y = min-dual-infeas       yes
                              bound_push = 0.0001                yes
               expect_infeasible_problem = yes                   yes
                         grad_f_constant = yes                   yes
                   hessian_approximation = limited-memory        yes
              limited_memory_max_history = 25                    yes
                                max_iter = 2000                  yes
                             mu_strategy = adaptive              yes
                             output_file = SimplySuppTruss_3D_sym_dim150x50x75-1x1x1-7x3x4-JC=0-nocell/IPOPT_out.log  yes
                       print_info_string = yes                   yes
                             print_level = 5                     yes
                 print_timing_statistics = yes                   yes
                      print_user_options = yes                   yes
                                recalc_y = yes                   yes
                                     tol = 1e-05                 yes

******************************************************************************
This program contains Ipopt, a library for large-scale nonlinear optimization.
 Ipopt is released as open source code under the Eclipse Public License (EPL).
         For more information visit https://github.com/coin-or/Ipopt
******************************************************************************

This is Ipopt version 3.14.11, running with linear solver MUMPS 5.2.1.

Number of nonzeros in equality constraint Jacobian...:       32
Number of nonzeros in inequality constraint Jacobian.:      128
Number of nonzeros in Lagrangian Hessian.............:        0

Total number of variables............................:       48
                     variables with only lower bounds:       12
                variables with lower and upper bounds:        0
                     variables with only upper bounds:        0
Total number of equality constraints.................:       24
Total number of inequality constraints...............:       48
        inequality constraints with only lower bounds:       24
   inequality constraints with lower and upper bounds:       12
        inequality constraints with only upper bounds:       12

iter    objective    inf_pr   inf_du lg(mu)  ||d||  lg(rg) alpha_du alpha_pr  ls
   0  2.4767771e+03 1.00e+02 6.97e+01   0.0 0.00e+00    -  0.00e+00 0.00e+00   0 
   1  2.4954013e+03 9.86e+01 4.97e+01   2.0 6.17e+02    -  1.97e-01 1.44e-02h  1 Ws
   2  2.3192475e+03 8.88e+01 7.06e+01  -4.0 6.07e+02    -  2.97e-02 9.95e-02f  1 Nh L
   3  2.4465473e+03 4.75e+01 8.53e+01   1.3 5.01e+02    -  9.83e-02 4.65e-01f  1 LWs
   4  2.6073829e+03 1.13e+01 1.91e+01   1.0 2.54e+02    -  6.15e-01 8.07e-01h  1 Dj Ll
   5  2.5451699e+03 3.88e+00 3.32e+00  -0.2 1.11e+02    -  9.37e-01 1.00e+00f  1 lWs
   6  2.4845223e+03 1.72e+00 5.02e+00  -1.0 5.17e+01    -  1.00e+00 8.40e-01f  1 lWs
   7  2.4773823e+03 1.23e-01 8.90e-02  -1.6 3.76e+00    -  9.99e-01 9.55e-01f  1 lWr
   8  2.4767846e+03 1.34e-03 1.10e-02  -3.6 2.56e-01    -  9.95e-01 9.93e-01f  1 lWs
   9  2.4767777e+03 1.63e-12 5.62e-05  -4.9 2.80e-03    -  1.00e+00 9.42e-01h  1 lWs
iter    objective    inf_pr   inf_du lg(mu)  ||d||  lg(rg) alpha_du alpha_pr  ls
  10  2.4767772e+03 5.68e-14 7.03e-06  -5.7 2.14e-04    -  9.50e-01 1.00e+00h  1 ly 

Number of Iterations....: 10

                                   (scaled)                 (unscaled)
Objective...............:   2.4767771654066028e+03    2.4767771654066028e+03
Dual infeasibility......:   7.0281054548816209e-06    7.0281054548816209e-06
Constraint violation....:   5.6843418860808015e-14    5.6843418860808015e-14
Variable bound violation:   0.0000000000000000e+00    0.0000000000000000e+00
Complementarity.........:   4.1233781864953504e-06    4.1233781864953504e-06
Overall NLP error.......:   7.0281054548816209e-06    7.0281054548816209e-06


Number of objective function evaluations             = 11
Number of objective gradient evaluations             = 1
Number of equality constraint evaluations            = 11
Number of inequality constraint evaluations          = 11
Number of equality constraint Jacobian evaluations   = 11
Number of inequality constraint Jacobian evaluations = 11
Number of Lagrangian Hessian evaluations             = 0
Total seconds in IPOPT (w/o function evaluations)    =      0.074
Total seconds in NLP function evaluations            =      0.014


Timing Statistics:

OverallAlgorithm....................:      0.088 (sys:      0.000 wall:      0.088)
 PrintProblemStatistics.............:      0.002 (sys:      0.000 wall:      0.001)
 InitializeIterates.................:      0.004 (sys:      0.000 wall:      0.005)
 UpdateHessian......................:      0.000 (sys:      0.000 wall:      0.000)
 OutputIteration....................:      0.006 (sys:      0.000 wall:      0.001)
 UpdateBarrierParameter.............:      0.050 (sys:      0.000 wall:      0.051)
 ComputeSearchDirection.............:      0.008 (sys:      0.000 wall:      0.010)
 ComputeAcceptableTrialPoint........:      0.016 (sys:      0.000 wall:      0.015)
 AcceptTrialPoint...................:      0.001 (sys:      0.000 wall:      0.002)
 CheckConvergence...................:      0.000 (sys:      0.000 wall:      0.002)
PDSystemSolverTotal.................:      0.057 (sys:      0.000 wall:      0.060)
 PDSystemSolverSolveOnce............:      0.057 (sys:      0.000 wall:      0.060)
 ComputeResiduals...................:      0.000 (sys:      0.000 wall:      0.000)
 StdAugSystemSolverMultiSolve.......:      0.058 (sys:      0.000 wall:      0.062)
 LinearSystemScaling................:      0.000 (sys:      0.000 wall:      0.000)
 LinearSystemSymbolicFactorization..:      0.001 (sys:      0.000 wall:      0.001)
 LinearSystemFactorization..........:      0.000 (sys:      0.000 wall:      0.000)
 LinearSystemBackSolve..............:      0.040 (sys:      0.000 wall:      0.041)
 LinearSystemStructureConverter.....:      0.000 (sys:      0.000 wall:      0.000)
  LinearSystemStructureConverterInit:      0.000 (sys:      0.000 wall:      0.000)
QualityFunctionSearch...............:      0.000 (sys:      0.000 wall:      0.001)
TryCorrector........................:      0.000 (sys:      0.000 wall:      0.000)
Task1...............................:      0.000 (sys:      0.000 wall:      0.000)
Task2...............................:      0.000 (sys:      0.000 wall:      0.001)
Task3...............................:      0.000 (sys:      0.000 wall:      0.000)
Task4...............................:      0.000 (sys:      0.000 wall:      0.000)
Task5...............................:      0.000 (sys:      0.000 wall:      0.000)
Task6...............................:      0.000 (sys:      0.000 wall:      0.000)
Function Evaluations................:      0.016 (sys:      0.000 wall:      0.014)
 Objective function.................:      0.001 (sys:      0.000 wall:      0.000)
 Objective function gradient........:      0.000 (sys:      0.000 wall:      0.000)
 Equality constraints...............:      0.004 (sys:      0.000 wall:      0.003)
 Inequality constraints.............:      0.000 (sys:      0.000 wall:      0.001)
 Equality constraint Jacobian.......:      0.001 (sys:      0.000 wall:      0.000)
 Inequality constraint Jacobian.....:      0.010 (sys:      0.000 wall:      0.010)
 Lagrangian Hessian.................:      0.000 (sys:      0.000 wall:      0.000)

EXIT: Optimal Solution Found.
